#######################
Slurm job id: 17497813_198
Running on machine: p71
Running cmd: /nfs/shared/static-builds/gurobi1202 SOFTMEMLIMIT=125 MIPFocus=1 Presolve=1 TimeLimit=500 seed=17 /nfs/models/miplib2010/k16x240.mps.bz2
#######################
Set parameter TimeLimit to value 500
Set parameter SoftMemLimit to value 125
Set parameter MIPFocus to value 1
Set parameter LogFile to value 1202-MIPFocus1-Presolve1-TimeLimit500-k16x240-7.log
Set parameter Presolve to value 1
Set parameter Seed to value 17
Using license file /opt/gurobi/gurobi.lic

Gurobi Optimizer version 12.0.2 build v12.0.2rc0 (linux64 - "Ubuntu 22.04.4 LTS")
Copyright (c) 2025, Gurobi Optimization, LLC

Read MPS format model from file /nfs/models/miplib2010/k16x240.mps.bz2
Reading time = 0.00 seconds
k16x240: 256 rows, 480 columns, 960 nonzeros

Using Gurobi shared library /nfs/shared/static-builds/gurobi1202

CPU model: Intel(R) Xeon(R) E-2388G CPU @ 3.20GHz, instruction set [SSE2|AVX|AVX2|AVX512]
Thread count: 8 physical cores, 16 logical processors, using up to 16 threads

Non-default parameters:
TimeLimit  500
SoftMemLimit  125
MIPFocus  1
Presolve  1
Seed  17

Optimize a model with 256 rows, 480 columns and 960 nonzeros
Model fingerprint: 0x4e80885f
Variable types: 240 continuous, 240 integer (240 binary)
Coefficient statistics:
  Matrix range     [1e+00, 1e+03]
  Objective range  [1e+00, 1e+03]
  Bounds range     [1e+00, 1e+03]
  RHS range        [4e+00, 4e+02]
Found heuristic solution: objective 21882.000000
Presolve time: 0.00s
Presolved: 256 rows, 480 columns, 960 nonzeros
Variable types: 240 continuous, 240 integer (240 binary)

Root relaxation: objective 2.769838e+03, 51 iterations, 0.00 seconds (0.00 work units)

    Nodes    |    Current Node    |     Objective Bounds      |     Work
 Expl Unexpl |  Obj  Depth IntInf | Incumbent    BestBd   Gap | It/Node Time

     0     0 2769.83800    0   14 21882.0000 2769.83800  87.3%     -    0s
H    0     0                    11359.000000 2769.83800  75.6%     -    0s
H    0     0                    11195.000000 2769.83800  75.3%     -    0s
H    0     0                    11088.000000 2769.83800  75.0%     -    0s
H    0     0                    11074.000000 8084.69631  27.0%     -    0s
     0     0 8084.69631    0   26 11074.0000 8084.69631  27.0%     -    0s
H    0     0                    10916.000000 8084.69631  25.9%     -    0s
     0     0 8528.16906    0   24 10916.0000 8528.16906  21.9%     -    0s
     0     0 8539.49533    0   34 10916.0000 8539.49533  21.8%     -    0s
     0     0 8548.03675    0   29 10916.0000 8548.03675  21.7%     -    0s
H    0     0                    10806.000000 8548.03675  20.9%     -    0s
     0     0 8786.85987    0   39 10806.0000 8786.85987  18.7%     -    0s
H    0     0                    10756.000000 8786.85987  18.3%     -    0s
H    0     0                    10732.000000 8786.85987  18.1%     -    0s
     0     0 8810.34483    0   38 10732.0000 8810.34483  17.9%     -    0s
     0     0 8824.61166    0   28 10732.0000 8824.61166  17.8%     -    0s
     0     0 8825.19369    0   33 10732.0000 8825.19369  17.8%     -    0s
     0     0 8910.27395    0   26 10732.0000 8910.27395  17.0%     -    0s
     0     0 8934.92343    0   30 10732.0000 8934.92343  16.7%     -    0s
     0     0 8938.45077    0   38 10732.0000 8938.45077  16.7%     -    0s
     0     0 8939.30532    0   30 10732.0000 8939.30532  16.7%     -    0s
     0     0 9033.80089    0   38 10732.0000 9033.80089  15.8%     -    0s
H    0     0                    10681.000000 9033.80089  15.4%     -    0s
H    0     2                    10674.000000 9034.35521  15.4%     -    0s
     0     2 9034.35521    0   38 10674.0000 9034.35521  15.4%     -    0s
 35409 16399 10298.5605   34   13 10674.0000 9913.44770  7.13%  19.6    5s
 86403 33431 10501.3862   36   15 10674.0000 10042.4131  5.92%  19.0   10s
 137637 45570     cutoff   33      10674.0000 10111.9856  5.27%  18.2   15s
 191975 54654 10260.8033   63    7 10674.0000 10168.8393  4.73%  18.2   20s
 242220 60584 10383.4894   35   18 10674.0000 10215.6658  4.29%  17.9   25s
 298474 63974 10418.9987   34   12 10674.0000 10260.8887  3.87%  17.6   30s
 349668 64790 10340.6456   39   12 10674.0000 10299.5825  3.51%  17.4   35s
 405118 62929 10477.2586   39   24 10674.0000 10339.6051  3.13%  17.1   40s
 454148 57228 10473.5210   43   16 10674.0000 10377.0444  2.78%  17.2   45s
 512859 45046     cutoff   39      10674.0000 10427.0349  2.31%  16.9   50s
 576032 20228 10609.5936   32   12 10674.0000 10508.2819  1.55%  16.5   55s

Cutting planes:
  Gomory: 4
  Lift-and-project: 19
  Cover: 7
  Implied bound: 6
  Dual implied bound: 34
  MIR: 146
  Flow cover: 287
  Flow path: 49
  Inf proof: 5
  Network: 63
  Relax-and-lift: 5

Explored 604377 nodes (9768407 simplex iterations) in 56.98 seconds (62.08 work units)
Thread count was 16 (of 16 available processors)

Solution count 10: 10674 10681 10732 ... 11359

Optimal solution found (tolerance 1.00e-04)
Best objective 1.067400000000e+04, best bound 1.067400000000e+04, gap 0.0000%
